p edge 96 117
e 1 6
e 1 8
e 1 54
e 1 76
e 1 85
e 2 56
e 3 75
e 4 19
e 5 16
e 5 17
e 5 20
e 5 40
e 5 93
e 6 8
e 6 45
e 6 54
e 6 89
e 7 61
e 8 28
e 8 38
e 8 39
e 8 42
e 8 54
e 8 72
e 9 54
e 9 89
e 9 95
e 10 54
e 11 45
e 11 56
e 11 94
e 12 15
e 13 24
e 13 75
e 14 41
e 14 50
e 15 21
e 15 33
e 15 93
e 18 84
e 19 54
e 21 96
e 22 53
e 22 65
e 22 68
e 23 51
e 25 28
e 26 89
e 27 53
e 28 32
e 28 78
e 28 93
e 29 54
e 29 68
e 29 72
e 30 64
e 31 45
e 31 55
e 31 58
e 34 93
e 35 45
e 36 54
e 37 54
e 38 54
e 39 50
e 40 59
e 40 93
e 41 66
e 41 81
e 41 88
e 43 45
e 43 74
e 44 72
e 45 56
e 45 58
e 45 74
e 45 75
e 45 79
e 45 83
e 46 89
e 47 54
e 48 73
e 48 87
e 48 93
e 49 70
e 50 77
e 51 54
e 51 56
e 51 72
e 51 74
e 52 56
e 53 57
e 53 64
e 53 70
e 54 61
e 54 67
e 54 89
e 54 92
e 54 93
e 56 72
e 56 80
e 56 90
e 60 74
e 61 72
e 61 95
e 62 72
e 63 95
e 64 81
e 64 89
e 65 91
e 66 75
e 69 72
e 71 79
e 72 93
e 82 89
e 84 89
e 86 89
